benchmark/results/graph__15-1000-0.10-03_10/error_log/graph__15-1000-0.10-03_10_Quinton_Benders_primal_sub_ERRORLOG.lp
\ This file has been generated by DOcplex
\ ENCODING=ISO-8859-1
\Problem name: Quinton Benders_primal_sub

Maximize
 obj: tau
Subject To
 c1: tau <= 0.000993048659
 c2: y_a0_proc_0 + y_a0_proc_2 - tau = 0
 c3: y_a0_proc_0 <= 0
 c4: y_a0_proc_2 <= 1
 c5: tau <= 0.001736111111
 c6: y_a1_proc_0 + y_a1_proc_1 + y_a1_proc_2 - tau = 0
 c7: y_a1_proc_0 <= 0
 c8: y_a1_proc_1 <= 0
 c9: y_a1_proc_2 <= 1
 c10: tau <= 0.001010101010
 c11: y_a2_proc_0 + y_a2_proc_1 + y_a2_proc_2 - tau = 0
 c12: y_a2_proc_0 <= 0
 c13: y_a2_proc_1 <= 0
 c14: y_a2_proc_2 <= 1
 c15: tau <= 0.002288329519
 c16: y_a3_proc_0 + y_a3_proc_1 - tau = 0
 c17: y_a3_proc_0 <= 0
 c18: y_a3_proc_1 <= 1
 c19: tau <= 0.001408450704
 c20: y_a4_proc_0 + y_a4_proc_1 + y_a4_proc_2 - tau = 0
 c21: y_a4_proc_0 <= 1
 c22: y_a4_proc_1 <= 0
 c23: y_a4_proc_2 <= 0
 c24: tau <= 0.002487562189
 c25: y_a5_proc_0 + y_a5_proc_1 + y_a5_proc_2 - tau = 0
 c26: y_a5_proc_0 <= 0
 c27: y_a5_proc_1 <= 0
 c28: y_a5_proc_2 <= 1
 c29: tau <= 0.001293661061
 c30: y_a6_proc_0 + y_a6_proc_1 + y_a6_proc_2 - tau = 0
 c31: y_a6_proc_0 <= 0
 c32: y_a6_proc_1 <= 1
 c33: y_a6_proc_2 <= 0
 c34: tau <= 0.001116071429
 c35: y_a7_proc_1 + y_a7_proc_2 - tau = 0
 c36: y_a7_proc_1 <= 0
 c37: y_a7_proc_2 <= 1
 c38: tau <= 0.001477104874
 c39: y_a8_proc_0 + y_a8_proc_1 + y_a8_proc_2 - tau = 0
 c40: y_a8_proc_0 <= 0
 c41: y_a8_proc_1 <= 0
 c42: y_a8_proc_2 <= 1
 c43: tau <= 0.002369668246
 c44: y_a9_proc_0 + y_a9_proc_1 + y_a9_proc_2 - tau = 0
 c45: y_a9_proc_0 <= 0
 c46: y_a9_proc_1 <= 0
 c47: y_a9_proc_2 <= 1
 c48: tau <= 0.001215066829
 c49: y_a10_proc_0 + y_a10_proc_1 + y_a10_proc_2 - tau = 0
 c50: y_a10_proc_0 <= 0
 c51: y_a10_proc_1 <= 1
 c52: y_a10_proc_2 <= 0
 c53: tau <= 0.004219409283
 c54: y_a11_proc_0 + y_a11_proc_1 - tau = 0
 c55: y_a11_proc_0 <= 0
 c56: y_a11_proc_1 <= 1
 c57: tau <= 0.000858369099
 c58: y_a12_proc_1 + y_a12_proc_2 - tau = 0
 c59: y_a12_proc_1 <= 0
 c60: y_a12_proc_2 <= 1
 c61: tau <= 0.000940733772
 c62: y_a13_proc_0 + y_a13_proc_1 + y_a13_proc_2 - tau = 0
 c63: y_a13_proc_0 <= 0
 c64: y_a13_proc_1 <= 0
 c65: y_a13_proc_2 <= 1
 c66: tau <= 0.001064962726
 c67: y_a14_proc_0 + y_a14_proc_2 - tau = 0
 c68: y_a14_proc_0 <= 1
 c69: y_a14_proc_2 <= 0
 c70: u_a1 - u_a0 - 1014 y_a0_proc_0 - 1007 y_a0_proc_2 >= 0
 c71: u_a0 - u_a2 - 384 y_a2_proc_0 - 1209 y_a2_proc_1 - 990 y_a2_proc_2 >= 0
 c72: u_a3 - u_a2 - 384 y_a2_proc_0 - 1209 y_a2_proc_1 - 990 y_a2_proc_2 >= 0
 c73: u_a4 - u_a3 - 1238 y_a3_proc_0 - 437 y_a3_proc_1 >= 0
 c74: u_a5 - u_a1 - 838 y_a1_proc_0 - 1272 y_a1_proc_1 - 576 y_a1_proc_2 >= -1
 c75: u_a6 - u_a5 - 780 y_a5_proc_0 - 750 y_a5_proc_1 - 402 y_a5_proc_2 >= 0
 c76: u_a2 - u_a7 - 899 y_a7_proc_1 - 896 y_a7_proc_2 >= 0
 c77: u_a0 - u_a8 - 1002 y_a8_proc_0 - 573 y_a8_proc_1 - 677 y_a8_proc_2 >= 0
 c78: u_a9 - u_a5 - 780 y_a5_proc_0 - 750 y_a5_proc_1 - 402 y_a5_proc_2 >= 0
 c79: u_a9 - u_a10 - 1114 y_a10_proc_0 - 823 y_a10_proc_1 - 835 y_a10_proc_2
       >= 0
 c80: u_a11 - u_a4 - 710 y_a4_proc_0 - 660 y_a4_proc_1 - 667 y_a4_proc_2 >= -1
 c81: u_a7 - u_a12 - 1174 y_a12_proc_1 - 1165 y_a12_proc_2 >= 0
 c82: u_a9 - u_a13 - 915 y_a13_proc_0 - 928 y_a13_proc_1 - 1063 y_a13_proc_2
       >= 0
 c83: u_a12 - u_a14 - 939 y_a14_proc_0 - 633 y_a14_proc_2 >= 0
 c84: u_a11 - u_a6 - 1276 y_a6_proc_0 - 773 y_a6_proc_1 - 794 y_a6_proc_2 >= 0
 c85: u_a5 - u_a13 - 915 y_a13_proc_0 - 928 y_a13_proc_1 - 1063 y_a13_proc_2
       >= 0
 c86: u_a10 - u_a4 - 710 y_a4_proc_0 - 660 y_a4_proc_1 - 667 y_a4_proc_2 >= -1
 c87: u_a3 - u_a9 - 652 y_a9_proc_0 - 860 y_a9_proc_1 - 422 y_a9_proc_2 >= 0
 c88: u_a2 - u_a13 - 915 y_a13_proc_0 - 928 y_a13_proc_1 - 1063 y_a13_proc_2
       >= 0
 c89: u_a8 - u_a11 - 1195 y_a11_proc_0 - 237 y_a11_proc_1 >= 0
 c90: u_a11 - u_a5 - 780 y_a5_proc_0 - 750 y_a5_proc_1 - 402 y_a5_proc_2 >= 0
 c91: u_a6 - u_a9 - 652 y_a9_proc_0 - 860 y_a9_proc_1 - 422 y_a9_proc_2 >= 0
 c92: u_a1 - u_a0 - 1007 y_a0_proc_2 >= 0
 c93: u_a1 - u_a0 - 1014 y_a0_proc_0 >= -2552
 c94: u_a0 - u_a1 - 576 y_a1_proc_2 >= -1
 c95: u_a0 - u_a1 - 838 y_a1_proc_0 >= -2553
 c96: u_a2 - u_a0 - 1007 y_a0_proc_2 >= -1
 c97: u_a2 - u_a0 - 1014 y_a0_proc_0 >= -2553
 c98: u_a0 - u_a2 - 990 y_a2_proc_2 >= 0
 c99: u_a0 - u_a2 - 384 y_a2_proc_0 >= -2552
 c100: u_a3 - u_a0 - 1014 y_a0_proc_0 >= -5105
 c101: u_a0 - u_a3 - 1238 y_a3_proc_0 >= 0
 c102: u_a4 - u_a0 - 1007 y_a0_proc_2 >= -2553
 c103: u_a4 - u_a0 - 1014 y_a0_proc_0 >= -2553
 c104: u_a0 - u_a4 - 667 y_a4_proc_2 >= 0
 c105: u_a0 - u_a4 - 710 y_a4_proc_0 >= 0
 c106: u_a5 - u_a0 - 1007 y_a0_proc_2 >= -1
 c107: u_a5 - u_a0 - 1014 y_a0_proc_0 >= -2553
 c108: u_a0 - u_a5 - 402 y_a5_proc_2 >= 0
 c109: u_a0 - u_a5 - 780 y_a5_proc_0 >= -2552
 c110: u_a6 - u_a0 - 1007 y_a0_proc_2 >= -2553
 c111: u_a6 - u_a0 - 1014 y_a0_proc_0 >= -3829
 c112: u_a0 - u_a6 - 794 y_a6_proc_2 >= 0
 c113: u_a0 - u_a6 - 1276 y_a6_proc_0 >= -1276
 c114: u_a7 - u_a0 - 1007 y_a0_proc_2 >= -4
 c115: u_a0 - u_a7 - 896 y_a7_proc_2 >= 3
 c116: u_a8 - u_a0 - 1007 y_a0_proc_2 >= -1
 c117: u_a8 - u_a0 - 1014 y_a0_proc_0 >= -2553
 c118: u_a0 - u_a8 - 677 y_a8_proc_2 >= 0
 c119: u_a0 - u_a8 - 1002 y_a8_proc_0 >= -2552
 c120: u_a9 - u_a0 - 1007 y_a0_proc_2 >= -1
 c121: u_a9 - u_a0 - 1014 y_a0_proc_0 >= -2553
 c122: u_a0 - u_a9 - 422 y_a9_proc_2 >= 0
 c123: u_a0 - u_a9 - 652 y_a9_proc_0 >= -2552
 c124: u_a10 - u_a0 - 1007 y_a0_proc_2 >= -2554
 c125: u_a10 - u_a0 - 1014 y_a0_proc_0 >= -3830
 c126: u_a0 - u_a10 - 835 y_a10_proc_2 >= 1
 c127: u_a0 - u_a10 - 1114 y_a10_proc_0 >= -1275
 c128: u_a11 - u_a0 - 1014 y_a0_proc_0 >= -5105
 c129: u_a0 - u_a11 - 1195 y_a11_proc_0 >= 0
 c130: u_a12 - u_a0 - 1007 y_a0_proc_2 >= -999998725
 c131: u_a0 - u_a12 - 1165 y_a12_proc_2 >= 999998724
 c132: u_a13 - u_a0 - 1007 y_a0_proc_2 >= -999998726
 c133: u_a13 - u_a0 - 1014 y_a0_proc_0 >= -1000001278
 c134: u_a0 - u_a13 - 1063 y_a13_proc_2 >= 999998725
 c135: u_a0 - u_a13 - 915 y_a13_proc_0 >= 999996173
 c136: u_a14 - u_a0 - 1007 y_a0_proc_2 >= -999998725
 c137: u_a14 - u_a0 - 1014 y_a0_proc_0 >= -999998725
 c138: u_a0 - u_a14 - 633 y_a14_proc_2 >= 999996172
 c139: u_a0 - u_a14 - 939 y_a14_proc_0 >= 999996172
 c140: u_a2 - u_a1 - 576 y_a1_proc_2 >= -1
 c141: u_a2 - u_a1 - 838 y_a1_proc_0 >= -2553
 c142: u_a2 - u_a1 - 1272 y_a1_proc_1 >= -2553
 c143: u_a1 - u_a2 - 990 y_a2_proc_2 >= 0
 c144: u_a1 - u_a2 - 384 y_a2_proc_0 >= -2552
 c145: u_a1 - u_a2 - 1209 y_a2_proc_1 >= -2552
 c146: u_a3 - u_a1 - 838 y_a1_proc_0 >= -3829
 c147: u_a3 - u_a1 - 1272 y_a1_proc_1 >= -2553
 c148: u_a1 - u_a3 - 1238 y_a3_proc_0 >= -1276
 c149: u_a1 - u_a3 - 437 y_a3_proc_1 >= 0
 c150: u_a4 - u_a1 - 576 y_a1_proc_2 >= -2553
 c151: u_a4 - u_a1 - 838 y_a1_proc_0 >= -2553
 c152: u_a4 - u_a1 - 1272 y_a1_proc_1 >= -3829
 c153: u_a1 - u_a4 - 667 y_a4_proc_2 >= 0
 c154: u_a1 - u_a4 - 710 y_a4_proc_0 >= 0
 c155: u_a1 - u_a4 - 660 y_a4_proc_1 >= -1276
 c156: u_a5 - u_a1 - 576 y_a1_proc_2 >= -1
 c157: u_a5 - u_a1 - 838 y_a1_proc_0 >= -2553
 c158: u_a5 - u_a1 - 1272 y_a1_proc_1 >= -2553
 c159: u_a1 - u_a5 - 402 y_a5_proc_2 >= 0
 c160: u_a1 - u_a5 - 780 y_a5_proc_0 >= -2552
 c161: u_a1 - u_a5 - 750 y_a5_proc_1 >= -2552
 c162: u_a6 - u_a1 - 576 y_a1_proc_2 >= -2553
 c163: u_a6 - u_a1 - 838 y_a1_proc_0 >= -3829
 c164: u_a6 - u_a1 - 1272 y_a1_proc_1 >= -2553
 c165: u_a1 - u_a6 - 794 y_a6_proc_2 >= 0
 c166: u_a1 - u_a6 - 1276 y_a6_proc_0 >= -1276
 c167: u_a1 - u_a6 - 773 y_a6_proc_1 >= 0
 c168: u_a7 - u_a1 - 576 y_a1_proc_2 >= -5
 c169: u_a7 - u_a1 - 1272 y_a1_proc_1 >= -2557
 c170: u_a1 - u_a7 - 896 y_a7_proc_2 >= 4
 c171: u_a1 - u_a7 - 899 y_a7_proc_1 >= -2548
 c172: u_a8 - u_a1 - 576 y_a1_proc_2 >= -1
 c173: u_a8 - u_a1 - 838 y_a1_proc_0 >= -2553
 c174: u_a8 - u_a1 - 1272 y_a1_proc_1 >= -2553
 c175: u_a1 - u_a8 - 677 y_a8_proc_2 >= 0
 c176: u_a1 - u_a8 - 1002 y_a8_proc_0 >= -2552
 c177: u_a1 - u_a8 - 573 y_a8_proc_1 >= -2552
 c178: u_a9 - u_a1 - 576 y_a1_proc_2 >= -1
 c179: u_a9 - u_a1 - 838 y_a1_proc_0 >= -2553
 c180: u_a9 - u_a1 - 1272 y_a1_proc_1 >= -2553
 c181: u_a1 - u_a9 - 422 y_a9_proc_2 >= 0
 c182: u_a1 - u_a9 - 652 y_a9_proc_0 >= -2552
 c183: u_a1 - u_a9 - 860 y_a9_proc_1 >= -2552
 c184: u_a10 - u_a1 - 576 y_a1_proc_2 >= -2554
 c185: u_a10 - u_a1 - 838 y_a1_proc_0 >= -3830
 c186: u_a10 - u_a1 - 1272 y_a1_proc_1 >= -2554
 c187: u_a1 - u_a10 - 835 y_a10_proc_2 >= 1
 c188: u_a1 - u_a10 - 1114 y_a10_proc_0 >= -1275
 c189: u_a1 - u_a10 - 823 y_a10_proc_1 >= 1
 c190: u_a11 - u_a1 - 838 y_a1_proc_0 >= -3829
 c191: u_a11 - u_a1 - 1272 y_a1_proc_1 >= -2553
 c192: u_a1 - u_a11 - 1195 y_a11_proc_0 >= -1276
 c193: u_a1 - u_a11 - 237 y_a11_proc_1 >= 0
 c194: u_a12 - u_a1 - 576 y_a1_proc_2 >= -999998725
 c195: u_a12 - u_a1 - 1272 y_a1_proc_1 >= -1000001277
 c196: u_a1 - u_a12 - 1165 y_a12_proc_2 >= 999998724
 c197: u_a1 - u_a12 - 1174 y_a12_proc_1 >= 999996172
 c198: u_a13 - u_a1 - 576 y_a1_proc_2 >= -999998726
 c199: u_a13 - u_a1 - 838 y_a1_proc_0 >= -1000001278
 c200: u_a13 - u_a1 - 1272 y_a1_proc_1 >= -1000001278
 c201: u_a1 - u_a13 - 1063 y_a13_proc_2 >= 999998725
 c202: u_a1 - u_a13 - 915 y_a13_proc_0 >= 999996173
 c203: u_a1 - u_a13 - 928 y_a13_proc_1 >= 999996173
 c204: u_a14 - u_a1 - 576 y_a1_proc_2 >= -999998725
 c205: u_a14 - u_a1 - 838 y_a1_proc_0 >= -999998725
 c206: u_a1 - u_a14 - 633 y_a14_proc_2 >= 999996172
 c207: u_a1 - u_a14 - 939 y_a14_proc_0 >= 999996172
 c208: u_a3 - u_a2 - 384 y_a2_proc_0 >= -3828
 c209: u_a3 - u_a2 - 1209 y_a2_proc_1 >= -2552
 c210: u_a2 - u_a3 - 1238 y_a3_proc_0 >= -1277
 c211: u_a2 - u_a3 - 437 y_a3_proc_1 >= -1
 c212: u_a4 - u_a2 - 990 y_a2_proc_2 >= -2552
 c213: u_a4 - u_a2 - 384 y_a2_proc_0 >= -2552
 c214: u_a4 - u_a2 - 1209 y_a2_proc_1 >= -3828
 c215: u_a2 - u_a4 - 667 y_a4_proc_2 >= -1
 c216: u_a2 - u_a4 - 710 y_a4_proc_0 >= -1
 c217: u_a2 - u_a4 - 660 y_a4_proc_1 >= -1277
 c218: u_a5 - u_a2 - 990 y_a2_proc_2 >= -1
 c219: u_a5 - u_a2 - 384 y_a2_proc_0 >= -2553
 c220: u_a5 - u_a2 - 1209 y_a2_proc_1 >= -2553
 c221: u_a2 - u_a5 - 402 y_a5_proc_2 >= 0
 c222: u_a2 - u_a5 - 780 y_a5_proc_0 >= -2552
 c223: u_a2 - u_a5 - 750 y_a5_proc_1 >= -2552
 c224: u_a6 - u_a2 - 990 y_a2_proc_2 >= -2552
 c225: u_a6 - u_a2 - 384 y_a2_proc_0 >= -3828
 c226: u_a6 - u_a2 - 1209 y_a2_proc_1 >= -2552
 c227: u_a2 - u_a6 - 794 y_a6_proc_2 >= -1
 c228: u_a2 - u_a6 - 1276 y_a6_proc_0 >= -1277
 c229: u_a2 - u_a6 - 773 y_a6_proc_1 >= -1
 c230: u_a7 - u_a2 - 990 y_a2_proc_2 >= -4
 c231: u_a7 - u_a2 - 1209 y_a2_proc_1 >= -2556
 c232: u_a2 - u_a7 - 896 y_a7_proc_2 >= 3
 c233: u_a2 - u_a7 - 899 y_a7_proc_1 >= -2549
 c234: u_a8 - u_a2 - 990 y_a2_proc_2 >= 0
 c235: u_a8 - u_a2 - 384 y_a2_proc_0 >= -2552
 c236: u_a8 - u_a2 - 1209 y_a2_proc_1 >= -2552
 c237: u_a2 - u_a8 - 677 y_a8_proc_2 >= -1
 c238: u_a2 - u_a8 - 1002 y_a8_proc_0 >= -2553
 c239: u_a2 - u_a8 - 573 y_a8_proc_1 >= -2553
 c240: u_a9 - u_a2 - 990 y_a2_proc_2 >= 0
 c241: u_a9 - u_a2 - 384 y_a2_proc_0 >= -2552
 c242: u_a9 - u_a2 - 1209 y_a2_proc_1 >= -2552
 c243: u_a2 - u_a9 - 422 y_a9_proc_2 >= -1
 c244: u_a2 - u_a9 - 652 y_a9_proc_0 >= -2553
 c245: u_a2 - u_a9 - 860 y_a9_proc_1 >= -2553
 c246: u_a10 - u_a2 - 990 y_a2_proc_2 >= -2552
 c247: u_a10 - u_a2 - 384 y_a2_proc_0 >= -3828
 c248: u_a10 - u_a2 - 1209 y_a2_proc_1 >= -2552
 c249: u_a2 - u_a10 - 835 y_a10_proc_2 >= -1
 c250: u_a2 - u_a10 - 1114 y_a10_proc_0 >= -1277
 c251: u_a2 - u_a10 - 823 y_a10_proc_1 >= -1
 c252: u_a11 - u_a2 - 384 y_a2_proc_0 >= -3828
 c253: u_a11 - u_a2 - 1209 y_a2_proc_1 >= -2552
 c254: u_a2 - u_a11 - 1195 y_a11_proc_0 >= -1277
 c255: u_a2 - u_a11 - 237 y_a11_proc_1 >= -1
 c256: u_a12 - u_a2 - 990 y_a2_proc_2 >= -999998724
 c257: u_a12 - u_a2 - 1209 y_a2_proc_1 >= -1000001276
 c258: u_a2 - u_a12 - 1165 y_a12_proc_2 >= 999998723
 c259: u_a2 - u_a12 - 1174 y_a12_proc_1 >= 999996171
 c260: u_a13 - u_a2 - 990 y_a2_proc_2 >= -999998725
 c261: u_a13 - u_a2 - 384 y_a2_proc_0 >= -1000001277
 c262: u_a13 - u_a2 - 1209 y_a2_proc_1 >= -1000001277
 c263: u_a2 - u_a13 - 1063 y_a13_proc_2 >= 999998724
 c264: u_a2 - u_a13 - 915 y_a13_proc_0 >= 999996172
 c265: u_a2 - u_a13 - 928 y_a13_proc_1 >= 999996172
 c266: u_a14 - u_a2 - 990 y_a2_proc_2 >= -1000001276
 c267: u_a14 - u_a2 - 384 y_a2_proc_0 >= -1000001276
 c268: u_a2 - u_a14 - 633 y_a14_proc_2 >= 999998723
 c269: u_a2 - u_a14 - 939 y_a14_proc_0 >= 999998723
 c270: u_a4 - u_a3 - 1238 y_a3_proc_0 >= -2552
 c271: u_a4 - u_a3 - 437 y_a3_proc_1 >= -2552
 c272: u_a3 - u_a4 - 710 y_a4_proc_0 >= -1
 c273: u_a3 - u_a4 - 660 y_a4_proc_1 >= -1
 c274: u_a5 - u_a3 - 1238 y_a3_proc_0 >= -3829
 c275: u_a5 - u_a3 - 437 y_a3_proc_1 >= -2553
 c276: u_a3 - u_a5 - 780 y_a5_proc_0 >= -1276
 c277: u_a3 - u_a5 - 750 y_a5_proc_1 >= 0
 c278: u_a6 - u_a3 - 1238 y_a3_proc_0 >= -2553
 c279: u_a6 - u_a3 - 437 y_a3_proc_1 >= -1
 c280: u_a3 - u_a6 - 1276 y_a6_proc_0 >= -2552
 c281: u_a3 - u_a6 - 773 y_a6_proc_1 >= 0
 c282: u_a7 - u_a3 - 437 y_a3_proc_1 >= -2556
 c283: u_a3 - u_a7 - 899 y_a7_proc_1 >= 3
 c284: u_a8 - u_a3 - 1238 y_a3_proc_0 >= -3828
 c285: u_a8 - u_a3 - 437 y_a3_proc_1 >= -2552
 c286: u_a3 - u_a8 - 1002 y_a8_proc_0 >= -1277
 c287: u_a3 - u_a8 - 573 y_a8_proc_1 >= -1
 c288: u_a9 - u_a3 - 1238 y_a3_proc_0 >= -3829
 c289: u_a9 - u_a3 - 437 y_a3_proc_1 >= -2553
 c290: u_a3 - u_a9 - 652 y_a9_proc_0 >= -1276
 c291: u_a3 - u_a9 - 860 y_a9_proc_1 >= 0
 c292: u_a10 - u_a3 - 1238 y_a3_proc_0 >= -2553
 c293: u_a10 - u_a3 - 437 y_a3_proc_1 >= -1
 c294: u_a3 - u_a10 - 1114 y_a10_proc_0 >= -2552
 c295: u_a3 - u_a10 - 823 y_a10_proc_1 >= 0
 c296: u_a11 - u_a3 - 1238 y_a3_proc_0 >= -2553
 c297: u_a11 - u_a3 - 437 y_a3_proc_1 >= -1
 c298: u_a3 - u_a11 - 1195 y_a11_proc_0 >= -2552
 c299: u_a3 - u_a11 - 237 y_a11_proc_1 >= 0
 c300: u_a12 - u_a3 - 437 y_a3_proc_1 >= -1000001276
 c301: u_a3 - u_a12 - 1174 y_a12_proc_1 >= 999998723
 c302: u_a13 - u_a3 - 1238 y_a3_proc_0 >= -1000002552
 c303: u_a13 - u_a3 - 437 y_a3_proc_1 >= -1000001276
 c304: u_a3 - u_a13 - 915 y_a13_proc_0 >= 999997447
 c305: u_a3 - u_a13 - 928 y_a13_proc_1 >= 999998723
 c306: u_a14 - u_a3 - 1238 y_a3_proc_0 >= -1000001276
 c307: u_a3 - u_a14 - 939 y_a14_proc_0 >= 999998723
 c308: u_a5 - u_a4 - 667 y_a4_proc_2 >= -2553
 c309: u_a5 - u_a4 - 710 y_a4_proc_0 >= -2553
 c310: u_a5 - u_a4 - 660 y_a4_proc_1 >= -3829
 c311: u_a4 - u_a5 - 402 y_a5_proc_2 >= 0
 c312: u_a4 - u_a5 - 780 y_a5_proc_0 >= 0
 c313: u_a4 - u_a5 - 750 y_a5_proc_1 >= -1276
 c314: u_a6 - u_a4 - 667 y_a4_proc_2 >= -3829
 c315: u_a6 - u_a4 - 710 y_a4_proc_0 >= -2553
 c316: u_a6 - u_a4 - 660 y_a4_proc_1 >= -2553
 c317: u_a4 - u_a6 - 794 y_a6_proc_2 >= -1276
 c318: u_a4 - u_a6 - 1276 y_a6_proc_0 >= 0
 c319: u_a4 - u_a6 - 773 y_a6_proc_1 >= 0
 c320: u_a7 - u_a4 - 667 y_a4_proc_2 >= -2556
 c321: u_a7 - u_a4 - 660 y_a4_proc_1 >= -3832
 c322: u_a4 - u_a7 - 896 y_a7_proc_2 >= 3
 c323: u_a4 - u_a7 - 899 y_a7_proc_1 >= -1273
 c324: u_a8 - u_a4 - 667 y_a4_proc_2 >= -2552
 c325: u_a8 - u_a4 - 710 y_a4_proc_0 >= -2552
 c326: u_a8 - u_a4 - 660 y_a4_proc_1 >= -3828
 c327: u_a4 - u_a8 - 677 y_a8_proc_2 >= -1
 c328: u_a4 - u_a8 - 1002 y_a8_proc_0 >= -1
 c329: u_a4 - u_a8 - 573 y_a8_proc_1 >= -1277
 c330: u_a9 - u_a4 - 667 y_a4_proc_2 >= -2553
 c331: u_a9 - u_a4 - 710 y_a4_proc_0 >= -2553
 c332: u_a9 - u_a4 - 660 y_a4_proc_1 >= -3829
 c333: u_a4 - u_a9 - 422 y_a9_proc_2 >= 0
 c334: u_a4 - u_a9 - 652 y_a9_proc_0 >= 0
 c335: u_a4 - u_a9 - 860 y_a9_proc_1 >= -1276
 c336: u_a10 - u_a4 - 667 y_a4_proc_2 >= -2553
 c337: u_a10 - u_a4 - 710 y_a4_proc_0 >= -1277
 c338: u_a10 - u_a4 - 660 y_a4_proc_1 >= -1277
 c339: u_a4 - u_a10 - 835 y_a10_proc_2 >= -2552
 c340: u_a4 - u_a10 - 1114 y_a10_proc_0 >= -1276
 c341: u_a4 - u_a10 - 823 y_a10_proc_1 >= -1276
 c342: u_a11 - u_a4 - 710 y_a4_proc_0 >= -2553
 c343: u_a11 - u_a4 - 660 y_a4_proc_1 >= -2553
 c344: u_a4 - u_a11 - 1195 y_a11_proc_0 >= 0
 c345: u_a4 - u_a11 - 237 y_a11_proc_1 >= 0
 c346: u_a12 - u_a4 - 667 y_a4_proc_2 >= -1000001276
 c347: u_a12 - u_a4 - 660 y_a4_proc_1 >= -1000002552
 c348: u_a4 - u_a12 - 1165 y_a12_proc_2 >= 999998723
 c349: u_a4 - u_a12 - 1174 y_a12_proc_1 >= 999997447
 c350: u_a13 - u_a4 - 667 y_a4_proc_2 >= -1000001276
 c351: u_a13 - u_a4 - 710 y_a4_proc_0 >= -1000001276
 c352: u_a13 - u_a4 - 660 y_a4_proc_1 >= -1000002552
 c353: u_a4 - u_a13 - 1063 y_a13_proc_2 >= 999998723
 c354: u_a4 - u_a13 - 915 y_a13_proc_0 >= 999998723
 c355: u_a4 - u_a13 - 928 y_a13_proc_1 >= 999997447
 c356: u_a14 - u_a4 - 667 y_a4_proc_2 >= -1000001276
 c357: u_a14 - u_a4 - 710 y_a4_proc_0 >= -999998724
 c358: u_a4 - u_a14 - 633 y_a14_proc_2 >= 999996171
 c359: u_a4 - u_a14 - 939 y_a14_proc_0 >= 999998723
 c360: u_a6 - u_a5 - 402 y_a5_proc_2 >= -2552
 c361: u_a6 - u_a5 - 780 y_a5_proc_0 >= -3828
 c362: u_a6 - u_a5 - 750 y_a5_proc_1 >= -2552
 c363: u_a5 - u_a6 - 794 y_a6_proc_2 >= -1
 c364: u_a5 - u_a6 - 1276 y_a6_proc_0 >= -1277
 c365: u_a5 - u_a6 - 773 y_a6_proc_1 >= -1
 c366: u_a7 - u_a5 - 402 y_a5_proc_2 >= -4
 c367: u_a7 - u_a5 - 750 y_a5_proc_1 >= -2556
 c368: u_a5 - u_a7 - 896 y_a7_proc_2 >= 3
 c369: u_a5 - u_a7 - 899 y_a7_proc_1 >= -2549
 c370: u_a8 - u_a5 - 402 y_a5_proc_2 >= 0
 c371: u_a8 - u_a5 - 780 y_a5_proc_0 >= -2552
 c372: u_a8 - u_a5 - 750 y_a5_proc_1 >= -2552
 c373: u_a5 - u_a8 - 677 y_a8_proc_2 >= -1
 c374: u_a5 - u_a8 - 1002 y_a8_proc_0 >= -2553
 c375: u_a5 - u_a8 - 573 y_a8_proc_1 >= -2553
 c376: u_a9 - u_a5 - 402 y_a5_proc_2 >= 0
 c377: u_a9 - u_a5 - 780 y_a5_proc_0 >= -2552
 c378: u_a9 - u_a5 - 750 y_a5_proc_1 >= -2552
 c379: u_a5 - u_a9 - 422 y_a9_proc_2 >= -1
 c380: u_a5 - u_a9 - 652 y_a9_proc_0 >= -2553
 c381: u_a5 - u_a9 - 860 y_a9_proc_1 >= -2553
 c382: u_a10 - u_a5 - 402 y_a5_proc_2 >= -2553
 c383: u_a10 - u_a5 - 780 y_a5_proc_0 >= -3829
 c384: u_a10 - u_a5 - 750 y_a5_proc_1 >= -2553
 c385: u_a5 - u_a10 - 835 y_a10_proc_2 >= 0
 c386: u_a5 - u_a10 - 1114 y_a10_proc_0 >= -1276
 c387: u_a5 - u_a10 - 823 y_a10_proc_1 >= 0
 c388: u_a11 - u_a5 - 780 y_a5_proc_0 >= -3828
 c389: u_a11 - u_a5 - 750 y_a5_proc_1 >= -2552
 c390: u_a5 - u_a11 - 1195 y_a11_proc_0 >= -1277
 c391: u_a5 - u_a11 - 237 y_a11_proc_1 >= -1
 c392: u_a12 - u_a5 - 402 y_a5_proc_2 >= -999998724
 c393: u_a12 - u_a5 - 750 y_a5_proc_1 >= -1000001276
 c394: u_a5 - u_a12 - 1165 y_a12_proc_2 >= 999998723
 c395: u_a5 - u_a12 - 1174 y_a12_proc_1 >= 999996171
 c396: u_a13 - u_a5 - 402 y_a5_proc_2 >= -999998725
 c397: u_a13 - u_a5 - 780 y_a5_proc_0 >= -1000001277
 c398: u_a13 - u_a5 - 750 y_a5_proc_1 >= -1000001277
 c399: u_a5 - u_a13 - 1063 y_a13_proc_2 >= 999998724
 c400: u_a5 - u_a13 - 915 y_a13_proc_0 >= 999996172
 c401: u_a5 - u_a13 - 928 y_a13_proc_1 >= 999996172
 c402: u_a14 - u_a5 - 402 y_a5_proc_2 >= -1000001276
 c403: u_a14 - u_a5 - 780 y_a5_proc_0 >= -1000001276
 c404: u_a5 - u_a14 - 633 y_a14_proc_2 >= 999998723
 c405: u_a5 - u_a14 - 939 y_a14_proc_0 >= 999998723
 c406: u_a7 - u_a6 - 794 y_a6_proc_2 >= -2556
 c407: u_a7 - u_a6 - 773 y_a6_proc_1 >= -2556
 c408: u_a6 - u_a7 - 896 y_a7_proc_2 >= 3
 c409: u_a6 - u_a7 - 899 y_a7_proc_1 >= 3
 c410: u_a8 - u_a6 - 794 y_a6_proc_2 >= -2552
 c411: u_a8 - u_a6 - 1276 y_a6_proc_0 >= -3828
 c412: u_a8 - u_a6 - 773 y_a6_proc_1 >= -2552
 c413: u_a6 - u_a8 - 677 y_a8_proc_2 >= -1
 c414: u_a6 - u_a8 - 1002 y_a8_proc_0 >= -1277
 c415: u_a6 - u_a8 - 573 y_a8_proc_1 >= -1
 c416: u_a9 - u_a6 - 794 y_a6_proc_2 >= -2553
 c417: u_a9 - u_a6 - 1276 y_a6_proc_0 >= -3829
 c418: u_a9 - u_a6 - 773 y_a6_proc_1 >= -2553
 c419: u_a6 - u_a9 - 422 y_a9_proc_2 >= 0
 c420: u_a6 - u_a9 - 652 y_a9_proc_0 >= -1276
 c421: u_a6 - u_a9 - 860 y_a9_proc_1 >= 0
 c422: u_a10 - u_a6 - 794 y_a6_proc_2 >= -2553
 c423: u_a10 - u_a6 - 1276 y_a6_proc_0 >= -2553
 c424: u_a10 - u_a6 - 773 y_a6_proc_1 >= -1
 c425: u_a6 - u_a10 - 835 y_a10_proc_2 >= -2552
 c426: u_a6 - u_a10 - 1114 y_a10_proc_0 >= -2552
 c427: u_a6 - u_a10 - 823 y_a10_proc_1 >= 0
 c428: u_a11 - u_a6 - 1276 y_a6_proc_0 >= -2552
 c429: u_a11 - u_a6 - 773 y_a6_proc_1 >= 0
 c430: u_a6 - u_a11 - 1195 y_a11_proc_0 >= -2553
 c431: u_a6 - u_a11 - 237 y_a11_proc_1 >= -1
 c432: u_a12 - u_a6 - 794 y_a6_proc_2 >= -1000001276
 c433: u_a12 - u_a6 - 773 y_a6_proc_1 >= -1000001276
 c434: u_a6 - u_a12 - 1165 y_a12_proc_2 >= 999998723
 c435: u_a6 - u_a12 - 1174 y_a12_proc_1 >= 999998723
 c436: u_a13 - u_a6 - 794 y_a6_proc_2 >= -1000001276
 c437: u_a13 - u_a6 - 1276 y_a6_proc_0 >= -1000002552
 c438: u_a13 - u_a6 - 773 y_a6_proc_1 >= -1000001276
 c439: u_a6 - u_a13 - 1063 y_a13_proc_2 >= 999998723
 c440: u_a6 - u_a13 - 915 y_a13_proc_0 >= 999997447
 c441: u_a6 - u_a13 - 928 y_a13_proc_1 >= 999998723
 c442: u_a14 - u_a6 - 794 y_a6_proc_2 >= -1000000000
 c443: u_a14 - u_a6 - 1276 y_a6_proc_0 >= -999998724
 c444: u_a6 - u_a14 - 633 y_a14_proc_2 >= 999994895
 c445: u_a6 - u_a14 - 939 y_a14_proc_0 >= 999996171
 c446: u_a8 - u_a7 - 896 y_a7_proc_2 >= 3
 c447: u_a8 - u_a7 - 899 y_a7_proc_1 >= -2549
 c448: u_a7 - u_a8 - 677 y_a8_proc_2 >= -4
 c449: u_a7 - u_a8 - 573 y_a8_proc_1 >= -2556
 c450: u_a9 - u_a7 - 896 y_a7_proc_2 >= 3
 c451: u_a9 - u_a7 - 899 y_a7_proc_1 >= -2549
 c452: u_a7 - u_a9 - 422 y_a9_proc_2 >= -4
 c453: u_a7 - u_a9 - 860 y_a9_proc_1 >= -2556
 c454: u_a10 - u_a7 - 896 y_a7_proc_2 >= -2550
 c455: u_a10 - u_a7 - 899 y_a7_proc_1 >= -2550
 c456: u_a7 - u_a10 - 835 y_a10_proc_2 >= -3
 c457: u_a7 - u_a10 - 823 y_a10_proc_1 >= -3
 c458: u_a11 - u_a7 - 899 y_a7_proc_1 >= -2549
 c459: u_a7 - u_a11 - 237 y_a11_proc_1 >= -4
 c460: u_a12 - u_a7 - 896 y_a7_proc_2 >= -999998721
 c461: u_a12 - u_a7 - 899 y_a7_proc_1 >= -1000001273
 c462: u_a7 - u_a12 - 1165 y_a12_proc_2 >= 999998720
 c463: u_a7 - u_a12 - 1174 y_a12_proc_1 >= 999996168
 c464: u_a13 - u_a7 - 896 y_a7_proc_2 >= -999998722
 c465: u_a13 - u_a7 - 899 y_a7_proc_1 >= -1000001274
 c466: u_a7 - u_a13 - 1063 y_a13_proc_2 >= 999998721
 c467: u_a7 - u_a13 - 928 y_a13_proc_1 >= 999996169
 c468: u_a14 - u_a7 - 896 y_a7_proc_2 >= -999998721
 c469: u_a7 - u_a14 - 633 y_a14_proc_2 >= 999996168
 c470: u_a9 - u_a8 - 677 y_a8_proc_2 >= -1
 c471: u_a9 - u_a8 - 1002 y_a8_proc_0 >= -2553
 c472: u_a9 - u_a8 - 573 y_a8_proc_1 >= -2553
 c473: u_a8 - u_a9 - 422 y_a9_proc_2 >= 0
 c474: u_a8 - u_a9 - 652 y_a9_proc_0 >= -2552
 c475: u_a8 - u_a9 - 860 y_a9_proc_1 >= -2552
 c476: u_a10 - u_a8 - 677 y_a8_proc_2 >= -2554
 c477: u_a10 - u_a8 - 1002 y_a8_proc_0 >= -3830
 c478: u_a10 - u_a8 - 573 y_a8_proc_1 >= -2554
 c479: u_a8 - u_a10 - 835 y_a10_proc_2 >= 1
 c480: u_a8 - u_a10 - 1114 y_a10_proc_0 >= -1275
 c481: u_a8 - u_a10 - 823 y_a10_proc_1 >= 1
 c482: u_a11 - u_a8 - 1002 y_a8_proc_0 >= -3829
 c483: u_a11 - u_a8 - 573 y_a8_proc_1 >= -2553
 c484: u_a8 - u_a11 - 1195 y_a11_proc_0 >= -1276
 c485: u_a8 - u_a11 - 237 y_a11_proc_1 >= 0
 c486: u_a12 - u_a8 - 677 y_a8_proc_2 >= -999998724
 c487: u_a12 - u_a8 - 573 y_a8_proc_1 >= -1000001276
 c488: u_a8 - u_a12 - 1165 y_a12_proc_2 >= 999998723
 c489: u_a8 - u_a12 - 1174 y_a12_proc_1 >= 999996171
 c490: u_a13 - u_a8 - 677 y_a8_proc_2 >= -999998726
 c491: u_a13 - u_a8 - 1002 y_a8_proc_0 >= -1000001278
 c492: u_a13 - u_a8 - 573 y_a8_proc_1 >= -1000001278
 c493: u_a8 - u_a13 - 1063 y_a13_proc_2 >= 999998725
 c494: u_a8 - u_a13 - 915 y_a13_proc_0 >= 999996173
 c495: u_a8 - u_a13 - 928 y_a13_proc_1 >= 999996173
 c496: u_a14 - u_a8 - 677 y_a8_proc_2 >= -1000001276
 c497: u_a14 - u_a8 - 1002 y_a8_proc_0 >= -1000001276
 c498: u_a8 - u_a14 - 633 y_a14_proc_2 >= 999998723
 c499: u_a8 - u_a14 - 939 y_a14_proc_0 >= 999998723
 c500: u_a10 - u_a9 - 422 y_a9_proc_2 >= -2553
 c501: u_a10 - u_a9 - 652 y_a9_proc_0 >= -3829
 c502: u_a10 - u_a9 - 860 y_a9_proc_1 >= -2553
 c503: u_a9 - u_a10 - 835 y_a10_proc_2 >= 0
 c504: u_a9 - u_a10 - 1114 y_a10_proc_0 >= -1276
 c505: u_a9 - u_a10 - 823 y_a10_proc_1 >= 0
 c506: u_a11 - u_a9 - 652 y_a9_proc_0 >= -3828
 c507: u_a11 - u_a9 - 860 y_a9_proc_1 >= -2552
 c508: u_a9 - u_a11 - 1195 y_a11_proc_0 >= -1277
 c509: u_a9 - u_a11 - 237 y_a11_proc_1 >= -1
 c510: u_a12 - u_a9 - 422 y_a9_proc_2 >= -999998724
 c511: u_a12 - u_a9 - 860 y_a9_proc_1 >= -1000001276
 c512: u_a9 - u_a12 - 1165 y_a12_proc_2 >= 999998723
 c513: u_a9 - u_a12 - 1174 y_a12_proc_1 >= 999996171
 c514: u_a13 - u_a9 - 422 y_a9_proc_2 >= -999998726
 c515: u_a13 - u_a9 - 652 y_a9_proc_0 >= -1000001278
 c516: u_a13 - u_a9 - 860 y_a9_proc_1 >= -1000001278
 c517: u_a9 - u_a13 - 1063 y_a13_proc_2 >= 999998725
 c518: u_a9 - u_a13 - 915 y_a13_proc_0 >= 999996173
 c519: u_a9 - u_a13 - 928 y_a13_proc_1 >= 999996173
 c520: u_a14 - u_a9 - 422 y_a9_proc_2 >= -1000001276
 c521: u_a14 - u_a9 - 652 y_a9_proc_0 >= -1000001276
 c522: u_a9 - u_a14 - 633 y_a14_proc_2 >= 999998723
 c523: u_a9 - u_a14 - 939 y_a14_proc_0 >= 999998723
 c524: u_a11 - u_a10 - 1114 y_a10_proc_0 >= -2552
 c525: u_a11 - u_a10 - 823 y_a10_proc_1 >= 0
 c526: u_a10 - u_a11 - 1195 y_a11_proc_0 >= -2553
 c527: u_a10 - u_a11 - 237 y_a11_proc_1 >= -1
 c528: u_a12 - u_a10 - 835 y_a10_proc_2 >= -999998723
 c529: u_a12 - u_a10 - 823 y_a10_proc_1 >= -999998723
 c530: u_a10 - u_a12 - 1165 y_a12_proc_2 >= 999996170
 c531: u_a10 - u_a12 - 1174 y_a12_proc_1 >= 999996170
 c532: u_a13 - u_a10 - 835 y_a10_proc_2 >= -1000001276
 c533: u_a13 - u_a10 - 1114 y_a10_proc_0 >= -1000002552
 c534: u_a13 - u_a10 - 823 y_a10_proc_1 >= -1000001276
 c535: u_a10 - u_a13 - 1063 y_a13_proc_2 >= 999998723
 c536: u_a10 - u_a13 - 915 y_a13_proc_0 >= 999997447
 c537: u_a10 - u_a13 - 928 y_a13_proc_1 >= 999998723
 c538: u_a14 - u_a10 - 835 y_a10_proc_2 >= -999999999
 c539: u_a14 - u_a10 - 1114 y_a10_proc_0 >= -999998723
 c540: u_a10 - u_a14 - 633 y_a14_proc_2 >= 999994894
 c541: u_a10 - u_a14 - 939 y_a14_proc_0 >= 999996170
 c542: u_a12 - u_a11 - 237 y_a11_proc_1 >= -1000001276
 c543: u_a11 - u_a12 - 1174 y_a12_proc_1 >= 999998723
 c544: u_a13 - u_a11 - 1195 y_a11_proc_0 >= -1000002552
 c545: u_a13 - u_a11 - 237 y_a11_proc_1 >= -1000001276
 c546: u_a11 - u_a13 - 915 y_a13_proc_0 >= 999997447
 c547: u_a11 - u_a13 - 928 y_a13_proc_1 >= 999998723
 c548: u_a14 - u_a11 - 1195 y_a11_proc_0 >= -1000001276
 c549: u_a11 - u_a14 - 939 y_a14_proc_0 >= 999998723
 c550: u_a13 - u_a12 - 1165 y_a12_proc_2 >= -2
 c551: u_a13 - u_a12 - 1174 y_a12_proc_1 >= -2554
 c552: u_a12 - u_a13 - 1063 y_a13_proc_2 >= 1
 c553: u_a12 - u_a13 - 928 y_a13_proc_1 >= -2551
 c554: u_a14 - u_a12 - 1165 y_a12_proc_2 >= -2553
 c555: u_a12 - u_a14 - 633 y_a14_proc_2 >= 0
 c556: u_a14 - u_a13 - 1063 y_a13_proc_2 >= -2551
 c557: u_a14 - u_a13 - 915 y_a13_proc_0 >= -2551
 c558: u_a13 - u_a14 - 633 y_a14_proc_2 >= -2
 c559: u_a13 - u_a14 - 939 y_a14_proc_0 >= -2

Bounds
End
